modelo.dat
data;

param demanda := # Define o parâmetro de demanda com os valores dos clientes
1 1200
2 1700
3 1600;

param limiteProducao := # Define o parâmetro de limite de produção com os valores das fábricas
1 1800
2 1400
3 1300;

param custoFixo := # Define o parâmetro de custo fixo com os valores das fábricas
1 12000
2 11000
3 12000;

param custoTransporte : 1      2      3 := # Define o parâmetro de custo de transporte com os valores das fábricas para os clientes
1                  10     15     12
2                  17     14     20
3                  15     10     11;

end; # Fim da definição dos dados